



























































































39 9 34 52 98 
51 103 85 108 68 
40 24 17 102 94 
11 106 47 105 44 
12 60 67 111 69 
76 38 6 81 35 
84 30 97 23 104 
19 36 89 8 0 
90 45 20 87 113 
53 50 1 74 78 
5 107 93 41 95 58 
48 62 114 2 112 
27 33 64 26 71 
46 79 10 55 18 22 
88 43 4 56 21 
57 73 80 25 66 
110 65 101 96 54 
82 13 86 92 77 
31 49 37 15 75 
32 7 3 99 29 
14 42 70 109 
72 63 83 61 
16 91 59 100 28 
